10
20
284164
0
0
51 44 50 43 61 41 58 42 42 31 24 20 32 35 37 38 46 43 41 38
1
0
72 73 77 52 53 76 75 60 70 71 60 52 82 55 115 64 69 56 50 63
2
0
15 17 14 19 16 21 19 12 10 27 11 17 18 15 18 15 9 31 12 16
3
0
1 2 1 2 1 2 3 2 2 2 2 1 2 2 2 2 2 2 2 2
4
0
15 11 6 10 12 6 9 17 15 9 16 14 9 16 20 9 25 17 11 9
5
0
34 27 21 36 28 19 39 36 23 40 28 19 28 19 23 42 30 29 36 27
6
0
39 53 59 35 41 54 34 62 45 50 59 56 45 59 39 52 35 70 59 32
7
0
19 19 22 24 30 33 17 31 34 14 27 29 31 26 25 26 32 32 24 23
8
0
27 12 12 18 20 12 19 16 13 12 19 15 12 16 17 15 18 24 20 16
9
0
4 2 4 3 3 3 3 5 4 5 6 4 7 4 5 4 7 5 5 5
